etc/upTests/tupley9/0001.eprime
language ESSENCE' 1.0

find pain_tuple1:
        matrix indexed by [int(1..2), int(2..3), int(3..4)] of int(1..7)
find pain_tuple2: matrix indexed by [int(1..2), int(2..3)] of int(8..9)
such that
    pain_tuple1[1, 2, 3] = 6,
    pain_tuple1[1, 3, 3] = 7,
    pain_tuple1[2, 2, 3] = 1,
    pain_tuple1[2, 3, 3] = 2,
    pain_tuple2[1, 2] = 8
