etc/upTests/tupley9/0001.eprime.solution
language ESSENCE' 1.0
$ minion Nodes: 8
$ minion TotalTime: 0.000655
$ Savile Row TotalTime: 0.19
letting pain_tuple1 be [[[6, 1;int(3..4)], 
[7, 1;int(3..4)];int(2..3)], 
[[1, 1;int(3..4)], 
[2, 1;int(3..4)];int(2..3)];int(1..2)]
letting pain_tuple2 be [[8, 8;int(2..3)], 
[8, 8;int(2..3)];int(1..2)]
